
Gurobi 9.5.0 (win64) logging started Tue Dec  7 12:04:05 2021

Set parameter LogFile to value "../results/logs/log_2021_12_07_12_03.csv_10_20.log"
Set parameter Method to value 3
Gurobi Optimizer version 9.5.0 build v9.5.0rc5 (win64)
Thread count: 6 physical cores, 12 logical processors, using up to 12 threads
Optimize a model with 157 rows, 9882 columns and 7489 nonzeros
Model fingerprint: 0xe6fb830d
Variable types: 4941 continuous, 4941 integer (4941 binary)
Coefficient statistics:
  Matrix range     [1e+00, 1e+01]
  Objective range  [1e+00, 1e+00]
  Bounds range     [1e+00, 1e+00]
  RHS range        [1e+00, 2e+01]
Found heuristic solution: objective -0.0000000
Presolve removed 116 rows and 9815 columns
Presolve time: 0.00s
Presolved: 41 rows, 67 columns, 215 nonzeros
Extracted 18 lazy constraints
Variable types: 31 continuous, 36 integer (35 binary)

Root relaxation: objective 3.800000e+01, 11 iterations, 0.00 seconds (0.00 work units)

    Nodes    |    Current Node    |     Objective Bounds      |     Work
 Expl Unexpl |  Obj  Depth IntInf | Incumbent    BestBd   Gap | It/Node Time

     0     0   14.29534    0    8   -0.00000   14.29534      -     -    0s
H    0     0                       4.0000000   14.29534   257%     -    0s
     0     0   11.91409    0    7    4.00000   11.91409   198%     -    0s
H    0     0                       9.0000000   11.91409  32.4%     -    0s
H    0     0                      11.0000000   11.91409  8.31%     -    0s
     0     0   11.91409    0    7   11.00000   11.91409  8.31%     -    0s

Cutting planes:
  Gomory: 2
  Implied bound: 2
  MIR: 4
  RLT: 1
  Relax-and-lift: 1
  Lazy constraints: 16

Explored 1 nodes (72 simplex iterations) in 0.02 seconds (0.01 work units)
Thread count was 12 (of 12 available processors)

Solution count 4: 11 9 4 -0 

Optimal solution found (tolerance 1.00e-04)
Best objective 1.100000000000e+01, best bound 1.100000000000e+01, gap 0.0000%
